% File represents an instance of a Composite Structure problem to be solved by a CP framework
% Created on 2025-03-25 14:06:15.454
T = 44;
n = 36;
m = 60;
edges = [(1, 2),
(7, 8),
(13, 14),
(19, 20),
(25, 26),
(31, 32),
(2, 3),
(8, 9),
(14, 15),
(21, 20),
(27, 26),
(33, 32),
(4, 3),
(10, 9),
(16, 15),
(21, 22),
(28, 27),
(33, 34),
(5, 4),
(11, 10),
(17, 16),
(23, 22),
(29, 28),
(35, 34),
(5, 6),
(12, 11),
(17, 18),
(23, 24),
(29, 30),
(36, 35),
(1, 7),
(7, 13),
(19, 13),
(19, 25),
(25, 31),
(2, 8),
(8, 14),
(20, 14),
(20, 26),
(26, 32),
(3, 9),
(9, 15),
(21, 15),
(21, 27),
(27, 33),
(4, 10),
(10, 16),
(22, 16),
(28, 22),
(28, 34),
(5, 11),
(11, 17),
(17, 23),
(29, 23),
(29, 35),
(6, 12),
(12, 18),
(18, 24),
(30, 24),
(36, 30)];
counts = [|12, 8, 12, 8,
|12, 8, 12, 6,
|12, 8, 6, 6,
|12, 10, 6, 6,
|12, 16, 6, 10,
|12, 16, 6, 6,
|12, 6, 12, 8,
|12, 2, 12, 4,
|10, 2, 6, 4,
|10, 10, 6, 4,
|10, 14, 6, 4,
|10, 14, 6, 6,
|12, 2, 8, 8,
|8, 2, 6, 4,
|8, 2, 6, 2,
|10, 2, 6, 2,
|10, 8, 6, 4,
|10, 8, 6, 2,
|12, 2, 8, 12,
|8, 2, 6, 8,
|10, 4, 6, 8,
|10, 2, 6, 4,
|10, 6, 6, 4,
|8, 2, 4, 2,
|10, 2, 8, 8,
|8, 2, 2, 8,
|10, 2, 4, 8,
|10, 2, 6, 8,
|12, 6, 10, 8,
|12, 2, 4, 8,
|10, 2, 8, 6,
|8, 2, 2, 4,
|8, 2, 4, 4,
|8, 2, 2, 4,
|12, 4, 2, 8,
|12, 4, 10, 8|];
